
        $ From http://www.csplib.org/Problems/prob009/data/helmut.pdf
        $ Problem number 61
        $ Sequence length : 25
        language ESSENCE' 1.0
        letting sizemaster be 264
        letting sizes be sequence(1,3,4,6,9,10,11,12,16,17,18,20,21,22,39,42,54,56,61,66,68,69,73,129,135)
        